;; Mutation-Based Equivalence Benchmark
;; Source:     AutomatArk / instance01038.smt2
;; Mutations:  literal_char_dec
;; Status:     sat
;;
;; Original regex vs mutated regex
;; Equivalence check: unsat ⟺ L(R1) = L(R2)

(set-info :smt-lib-version 2.6)
(set-info :category "mutation")
(set-info :status sat)
(set-logic QF_S)


;; R1: original
;; R2: mutated (literal_char_dec)
(assert
  (not
    (=
      (re.++ (re.union ((_ re.loop 1 1) (re.++ ((_ re.loop 1 1) (re.union (str.to_re "Ctrl+Shift+Alt+") (str.to_re "Ctrl+Shift+") (str.to_re "Ctrl+Alt+") (str.to_re "Shift+Alt+") (str.to_re "Ctrl+") (str.to_re "Alt+"))) ((_ re.loop 1 1) (re.union (re.++ (str.to_re "F1") (re.range "0" "2")) (re.++ (str.to_re "F") (re.range "1" "9")) (re.range "A" "Z") (re.range "a" "z") (re.range "0" "9") (str.to_re "-") (str.to_re "=") (str.to_re "[") (str.to_re "]") (str.to_re "\u{5c}") (str.to_re ";") (str.to_re "'") (str.to_re ",") (str.to_re ".") (str.to_re "/"))))) (re.++ (re.opt (str.to_re "Shift+")) ((_ re.loop 1 1) (re.++ (str.to_re "F") (re.union (re.++ (str.to_re "1") (re.range "0" "2")) (re.range "1" "9")))))) (str.to_re "\u{a}"))
      (re.++ (re.union ((_ re.loop 1 1) (re.++ ((_ re.loop 1 1) (re.union (str.to_re "Ctrl+Shift+Alt+") (str.to_re "Ctrl+Shift+") (str.to_re "Ctrl+Alt+") (str.to_re "Shift+Alt+") (str.to_re "Ctrl+") (str.to_re "Alt+"))) ((_ re.loop 1 1) (re.union (re.++ (str.to_re "F1") (re.range "0" "2")) (re.++ (str.to_re "F") (re.range "1" "9")) (re.range "A" "Z") (re.range "a" "z") (re.range "0" "9") (str.to_re "-") (str.to_re "=") (str.to_re "[") (str.to_re "]") (str.to_re "\u{5c}") (str.to_re ";") (str.to_re "'") (str.to_re ",") (str.to_re ".") (str.to_re "/"))))) (re.++ (re.opt (str.to_re "Shift*")) ((_ re.loop 1 1) (re.++ (str.to_re "F") (re.union (re.++ (str.to_re "1") (re.range "0" "2")) (re.range "1" "9")))))) (str.to_re "\u{a}")))))

(check-sat)
(exit)
